
Gurobi 12.0.2 (win64) logging started Wed May 21 23:01:14 2025

Set parameter LogFile to value "instancias/Teste\I_6_2_S_1-9_6.log"
Gurobi Optimizer version 12.0.2 build v12.0.2rc0 (win64 - Windows 11.0 (26100.2))

CPU model: 11th Gen Intel(R) Core(TM) i3-1115G4 @ 3.00GHz, instruction set [SSE2|AVX|AVX2|AVX512]
Thread count: 2 physical cores, 4 logical processors, using up to 4 threads

Non-default parameters:
TimeLimit  300

Optimize a model with 172 rows, 87 columns and 758 nonzeros
Model fingerprint: 0x89922034
Variable types: 15 continuous, 72 integer (0 binary)
Coefficient statistics:
  Matrix range     [1e+00, 1e+03]
  Objective range  [1e+00, 1e+00]
  Bounds range     [1e+00, 1e+00]
  RHS range        [1e+00, 1e+03]
Presolve removed 14 rows and 2 columns
Presolve time: 0.00s
Presolved: 158 rows, 85 columns, 732 nonzeros
Variable types: 13 continuous, 72 integer (72 binary)
Found heuristic solution: objective 376.0000000
Found heuristic solution: objective 250.0000000
Found heuristic solution: objective 235.0000000

Root relaxation: objective 0.000000e+00, 54 iterations, 0.00 seconds (0.00 work units)

    Nodes    |    Current Node    |     Objective Bounds      |     Work
 Expl Unexpl |  Obj  Depth IntInf | Incumbent    BestBd   Gap | It/Node Time

     0     0    0.00000    0   19  235.00000    0.00000   100%     -    0s
H    0     0                     211.0000000    0.00000   100%     -    0s
H    0     0                     199.0000000    0.00000   100%     -    0s
     0     0    0.00000    0   16  199.00000    0.00000   100%     -    0s
     0     0    0.00000    0   15  199.00000    0.00000   100%     -    0s
     0     0    0.00000    0   15  199.00000    0.00000   100%     -    0s
H    0     0                     170.0000000    0.00000   100%     -    0s
     0     0    0.00000    0   16  170.00000    0.00000   100%     -    0s
     0     0    0.00000    0   15  170.00000    0.00000   100%     -    0s
     0     0   32.87671    0   14  170.00000   32.87671  80.7%     -    0s
H    0     0                     150.0000000   33.30612  77.8%     -    0s
     0     0   33.30612    0   14  150.00000   33.30612  77.8%     -    0s
     0     0   50.00000    0   10  150.00000   50.00000  66.7%     -    0s
H    0     0                     139.0000000   50.00000  64.0%     -    0s
     0     0   50.00000    0   10  139.00000   50.00000  64.0%     -    0s
     0     0   50.00000    0    6  139.00000   50.00000  64.0%     -    0s
     0     0   50.00000    0   13  139.00000   50.00000  64.0%     -    0s
     0     0   50.00000    0   13  139.00000   50.00000  64.0%     -    0s
     0     0   50.01100    0   15  139.00000   50.01100  64.0%     -    0s
H    0     0                     135.0000000   50.33333  62.7%     -    0s
     0     0   50.33333    0   14  135.00000   50.33333  62.7%     -    0s
     0     0   64.00000    0   10  135.00000   64.00000  52.6%     -    0s
     0     0   64.00000    0   11  135.00000   64.00000  52.6%     -    0s
     0     0   64.00000    0   10  135.00000   64.00000  52.6%     -    0s
     0     0   64.00000    0   10  135.00000   64.00000  52.6%     -    0s
     0     0   64.00000    0    6  135.00000   64.00000  52.6%     -    0s
     0     0   64.00000    0    8  135.00000   64.00000  52.6%     -    0s
     0     0   64.00000    0    4  135.00000   64.00000  52.6%     -    0s
     0     0   64.00000    0    7  135.00000   64.00000  52.6%     -    0s
     0     0   64.00000    0    6  135.00000   64.00000  52.6%     -    0s
     0     0   64.00000    0    6  135.00000   64.00000  52.6%     -    0s
     0     2   64.00000    0    6  135.00000   64.00000  52.6%     -    0s
H   16    24                     134.0000000   64.00000  52.2%  18.3    0s
H  102    42                     134.0000000   64.29110  52.0%   8.6    0s
*  428   140               6     133.0000000   66.00000  50.4%   6.9    0s
H  763    97                     133.0000000   73.00000  45.1%   6.3    1s

Cutting planes:
  Learned: 13
  Gomory: 4
  Cover: 11
  Implied bound: 35
  MIR: 30
  Inf proof: 13
  Zero half: 4
  RLT: 13
  Relax-and-lift: 24
  PSD: 3

Explored 1231 nodes (7891 simplex iterations) in 1.46 seconds (0.15 work units)
Thread count was 4 (of 4 available processors)

Solution count 10: 133 134 135 ... 250

Optimal solution found (tolerance 1.00e-04)
Best objective 1.329999999866e+02, best bound 1.329999999866e+02, gap 0.0000%

Gurobi 12.0.2 (win64) logging started Thu May 22 08:50:44 2025

Set parameter LogFile to value "instancias/Teste\I_6_2_S_1-9_6.log"
Gurobi Optimizer version 12.0.2 build v12.0.2rc0 (win64 - Windows 11.0 (26100.2))

CPU model: 11th Gen Intel(R) Core(TM) i3-1115G4 @ 3.00GHz, instruction set [SSE2|AVX|AVX2|AVX512]
Thread count: 2 physical cores, 4 logical processors, using up to 4 threads

Non-default parameters:
TimeLimit  300

Optimize a model with 172 rows, 87 columns and 758 nonzeros
Model fingerprint: 0x89922034
Variable types: 15 continuous, 72 integer (0 binary)
Coefficient statistics:
  Matrix range     [1e+00, 1e+03]
  Objective range  [1e+00, 1e+00]
  Bounds range     [1e+00, 1e+00]
  RHS range        [1e+00, 1e+03]
Presolve removed 14 rows and 2 columns
Presolve time: 0.02s
Presolved: 158 rows, 85 columns, 732 nonzeros
Variable types: 13 continuous, 72 integer (72 binary)
Found heuristic solution: objective 376.0000000
Found heuristic solution: objective 250.0000000
Found heuristic solution: objective 235.0000000

Root relaxation: objective 0.000000e+00, 54 iterations, 0.00 seconds (0.00 work units)

    Nodes    |    Current Node    |     Objective Bounds      |     Work
 Expl Unexpl |  Obj  Depth IntInf | Incumbent    BestBd   Gap | It/Node Time

     0     0    0.00000    0   19  235.00000    0.00000   100%     -    0s
H    0     0                     211.0000000    0.00000   100%     -    0s
H    0     0                     199.0000000    0.00000   100%     -    0s
     0     0    0.00000    0   16  199.00000    0.00000   100%     -    0s
     0     0    0.00000    0   15  199.00000    0.00000   100%     -    0s
     0     0    0.00000    0   15  199.00000    0.00000   100%     -    0s
H    0     0                     170.0000000    0.00000   100%     -    0s
     0     0    0.00000    0   16  170.00000    0.00000   100%     -    0s
     0     0    0.00000    0   15  170.00000    0.00000   100%     -    0s
     0     0   32.87671    0   14  170.00000   32.87671  80.7%     -    0s
H    0     0                     150.0000000   33.30612  77.8%     -    0s
     0     0   33.30612    0   14  150.00000   33.30612  77.8%     -    0s
     0     0   50.00000    0   10  150.00000   50.00000  66.7%     -    0s
H    0     0                     139.0000000   50.00000  64.0%     -    0s
     0     0   50.00000    0   10  139.00000   50.00000  64.0%     -    0s
     0     0   50.00000    0    6  139.00000   50.00000  64.0%     -    0s
     0     0   50.00000    0   13  139.00000   50.00000  64.0%     -    0s
     0     0   50.00000    0   13  139.00000   50.00000  64.0%     -    0s
     0     0   50.01100    0   15  139.00000   50.01100  64.0%     -    0s
H    0     0                     135.0000000   50.33333  62.7%     -    0s
     0     0   50.33333    0   14  135.00000   50.33333  62.7%     -    0s
     0     0   64.00000    0   10  135.00000   64.00000  52.6%     -    0s
     0     0   64.00000    0   11  135.00000   64.00000  52.6%     -    0s
     0     0   64.00000    0   10  135.00000   64.00000  52.6%     -    0s
     0     0   64.00000    0   10  135.00000   64.00000  52.6%     -    0s
     0     0   64.00000    0    6  135.00000   64.00000  52.6%     -    0s
     0     0   64.00000    0    8  135.00000   64.00000  52.6%     -    0s
     0     0   64.00000    0    4  135.00000   64.00000  52.6%     -    0s
     0     0   64.00000    0    7  135.00000   64.00000  52.6%     -    0s
     0     0   64.00000    0    6  135.00000   64.00000  52.6%     -    0s
     0     0   64.00000    0    6  135.00000   64.00000  52.6%     -    0s
     0     2   64.00000    0    6  135.00000   64.00000  52.6%     -    0s
H   16    24                     134.0000000   64.00000  52.2%  18.3    0s
H  102    42                     134.0000000   64.29110  52.0%   8.6    0s
*  428   140               6     133.0000000   66.00000  50.4%   6.9    0s
H  763    97                     133.0000000   73.00000  45.1%   6.3    0s

Cutting planes:
  Learned: 13
  Gomory: 4
  Cover: 11
  Implied bound: 35
  MIR: 30
  Inf proof: 13
  Zero half: 4
  RLT: 13
  Relax-and-lift: 24
  PSD: 3

Explored 1231 nodes (7891 simplex iterations) in 1.28 seconds (0.15 work units)
Thread count was 4 (of 4 available processors)

Solution count 10: 133 134 135 ... 250

Optimal solution found (tolerance 1.00e-04)
Best objective 1.329999999866e+02, best bound 1.329999999866e+02, gap 0.0000%
